\Problem name: 

Minimize
OBJROW: t(0) + t(1) + t(2)
Subject To
K(0):  2 t(0) + 6 t(1) + 14 t(2) >= 1
K(1):  2 t(0) + 13 t(1) + 6 t(2) >= 1
K(2):  17 t(0) + 9 t(1) + 21 t(2) >= 1
K(3):  24 t(0) + 9 t(1) + 17 t(2) >= 1
K(4):  13 t(0) + 17 t(1) + 6 t(2) >= 1
K(5):  21 t(0) + 13 t(1) + 6 t(2) >= 1
Bounds
End
